
  32    4
  10   10   10   10

   0   0   0   0   0   4 2 29 30 31 
   7  10  10  10  10   2 25 3 
   6  10  10  10  10   1 4 
   7  10  10  10  10   1 5 
   5  10  10  10  10   1 6 
   8  10  10  10  10   2 28 7 
   8  10  10  10  10   1 8 
   5  10  10  10  10   1 9 
   9  10  10  10  10   1 10 
   4  10  10  10  10   1 11 
   7  10  10  10  10   1 12 
  10  10  10  10  10   1 13 
   9  10  10  10  10   1 14 
   5  10  10  10  10   1 15 
   6  10  10  10  10   2 27 16 
   8  10  10  10  10   1 17 
   1  10  10  10  10   1 18 
   8  10  10  10  10   1 19 
   5  10  10  10  10   1 20 
  10  10  10  10  10   1 21 
   7  10  10  10  10   1 22 
   9  10  10  10  10   1 23 
   7  10  10  10  10   1 24 
   7  10  10  10  10   1 26 
  10  10  10  10  10   1 26 
   3  10  10  10  10   1 32
   5  10  10  10  10   1 32
   6  10  10  10  10   1 32
   3  10  10  10  10   1 32
   7  10  10  10  10   1 32
   2  10  10  10  10   1 32
   0   0   0   0   0   0 
